
  12    4
  10   10   10   10

   0   0   0   0   0   1 2 
   5  10  10  10  10   3 7 6 3 
   2  10  10  10  10   2 5 4 
  10  10  10  10  10   3 11 10 8 
   9  10  10  10  10   3 11 10 8 
   4  10  10  10  10   3 11 10 8 
   9  10  10  10  10   2 10 8 
   9  10  10  10  10   1 9 
   2  10  10  10  10   1 12
   9  10  10  10  10   1 12
   1  10  10  10  10   1 12
   0   0   0   0   0   0 
